c instance by G2
c solution = 0100001100010010001010100
c Known solution cost is 1045 
p cnf 25 30
w 22 78 2 26 36 63 8 13 16 86 44 86 56 97 53 32 29 1 31 95 59 30 32 28 22
-2 -3 13 0
20 25 -1 0
6 -19 -17 0
-6 -23 -7 0
-2 24 -22 0
-24 -7 6 0
-6 -2 18 0
10 3 19 0
-25 5 6 0
-2 12 5 0
24 5 -16 0
18 -7 -11 0
20 2 1 0
10 22 15 0
-20 4 -15 0
8 -7 4 0
5 -3 -15 0
22 11 7 0
-4 -19 25 0
-13 18 11 0
-9 10 7 0
13 -10 20 0
18 -14 10 0
22 24 21 0
23 24 14 0
-5 17 14 0
-2 -18 22 0
-9 25 -23 0
19 17 1 0
22 -19 23 0
